1 -1 2 0
1 1 -3 0
1 1 4 0
1 -3 5 0
1 -4 3 0
1 5 6 0
1 -7 8 0
1 -7 9 0
1 7 10 0
1 -9 7 0
1 11 12 0
1 13 -12 0
1 14 13 0
1 -14 -5 0
1 14 15 0
1 -16 17 0
1 18 9 0
1 8 -19 0
1 -8 -20 0
1 -8 -21 0
1 17 -16 0
1 22 -23 0
1 22 -21 0
1 -24 -25 0
1 24 26 0
1 24 -27 0
1 28 29 0
1 28 -30 0
1 -31 -32 0
1 -31 33 0
1 -34 -30 0
1 6 26 0
1 -6 5 0
1 35 36 0
1 35 37 0
1 35 -38 0
1 -33 7 0
1 39 40 0
1 -39 41 0
1 -42 43 0
1 42 6 0
1 -26 29 0
1 37 -6 0
1 44 13 0
1 44 4 0
1 45 46 0
1 47 48 0
1 -48 49 0
1 46 -50 0
1 -46 -44 0
1 51 43 0
1 -51 -52 0
1 -51 -41 0
1 -12 14 0
1 -12 -46 0
1 -15 48 0
1 15 -9 0
1 15 -53 0
1 23 54 0
1 -55 22 0
1 -54 -21 0
1 54 -15 0
1 56 20 0
1 -56 47 0
1 -57 58 0
1 -53 50 0
1 53 -23 0
1 -53 38 0
1 -20 59 0
1 20 -17 0
1 21 60 0
1 21 22 0
1 -61 62 0
1 -63 64 0
1 -59 -65 0
1 -59 -23 0
1 60 66 0
1 -65 67 0
1 65 68 0
1 65 63 0
1 -65 69 0
1 -69 67 0
1 -64 70 0
1 71 -63 0
1 -72 -73 0
1 -19 -8 0
1 19 -65 0
1 -74 -69 0
1 41 -39 0
1 -41 -75 0
1 41 76 0
1 -43 -26 0
1 -43 -32 0
1 77 76 0
1 78 -76 0
1 -79 -41 0
1 79 78 0
1 -75 79 0
1 -80 -81 0
1 -58 57 0
1 58 -53 0
1 40 -39 0
1 -82 68 0
1 -68 -83 0
1 84 -40 0
1 -84 -69 0
1 -84 -53 0
1 -66 -70 0
1 -66 49 0
1 -49 83 0
